NAME : portcgen-23-8
COMMENT : portcgen N=23, seed=8
TYPE : TSP
DIMENSION : 23
EDGE_WEIGHT_TYPE : EUC_2D
NODE_COORD_SECTION
1 -197780 12017
2 135290 134571
3 7991 -329107
4 -47343 -67108
5 -366281 123052
6 -15559 31570
7 -44345 -34762
8 157474 -181387
9 138485 -243798
10 110483 80571
11 52757 27658
12 99444 -146732
13 -85908 1461
14 -73137 152078
15 -109699 410278
16 -182085 309953
17 -255481 214509
18 -50056 148801
19 52724 -312686
20 -84609 237858
21 67373 274138
22 -156670 -68828
23 106396 -49275
